c File: instances/14_0.35_3.col
c
c Description: Random graph of size 14 vertices and P(0.35) of edges between any two vertices.
p col 14 91
e 1 5
e 1 7
e 1 9
e 1 10
e 1 11
e 1 13
e 2 6
e 2 9
e 2 10
e 2 12
e 3 5
e 3 8
e 3 9
e 4 7
e 4 12
e 5 6
e 5 7
e 5 8
e 5 12
e 6 12
e 7 8
e 7 9
e 7 10
e 7 12
e 8 13
e 9 10
e 9 13
e 10 13